15
0 29 347 278 537 86 201 24 373 82 509 283 165 831 185
29 0 391 13 6 278 154 216 400 47 43 694 503 57 2
347 391 0 113 35 125 542 638 273 702 440 440 92 129 475
278 13 113 0 94 54 351 6 90 228 106 90 53 531 154
537 6 35 94 0 60 292 4 10 418 8 14 552 95 755
86 278 125 54 60 0 94 124 32 365 902 342 360 14 311
201 154 542 351 292 94 0 134 557 393 15 5 226 106 101
24 216 638 6 4 124 134 0 115 282 435 482 127 3 9
373 400 273 90 10 32 557 115 0 165 501 1 111 573 18
82 47 702 228 418 365 393 282 165 0 481 223 21 228 470
509 43 440 106 8 902 15 435 501 481 0 284 553 272 286
283 694 440 90 14 342 5 482 1 223 284 0 0 163 393
165 503 92 53 552 360 226 127 111 21 553 0 0 89 56
831 57 129 531 95 14 106 3 573 228 272 163 89 0 261
185 2 475 154 755 311 101 9 18 470 286 393 56 261 0